cnf/tinelli.cnf
p cnf 4  5 
-1 3 0
1 4 0
-2 0
1 -3 0
2 3 0