glpsol SAT/tinelli.sol
Problem:    tinelli.cnf
Rows:       5
Columns:    4 (4 integer, 4 binary)
Non-zeros:  9
Status:     INTEGER OPTIMAL
Objective:  0 (MINimum)

   No.   Row name        Activity     Lower bound   Upper bound
------ ------------    ------------- ------------- -------------
     1                             0             0               
     2                             1             1               
     3                             0             0               
     4                             0             0               
     5                             1             1               

   No. Column name       Activity     Lower bound   Upper bound
------ ------------    ------------- ------------- -------------
     1              *              1             0             1 
     2              *              0             0             1 
     3              *              1             0             1 
     4              *              0             0             1 

Integer feasibility conditions:

KKT.PE: max.abs.err = 0.00e+00 on row 0
        max.rel.err = 0.00e+00 on row 0
        High quality

KKT.PB: max.abs.err = 0.00e+00 on row 0
        max.rel.err = 0.00e+00 on row 0
        High quality

End of output
